; PUSH cw_2 DUP1 SLOAD DUP4 SWAP1 DUP2 => PUSH cw_2 DUP3 PUSH cw_2 SLOAD DUP5
(set-option :produce-proofs true)
; 
(set-info :status unknown)
(declare-fun storage_t ((_ BitVec 256) (_ BitVec 256) (_ BitVec 256) (_ BitVec 256) Int (_ BitVec 256)) (_ BitVec 256))
(declare-fun w_2 () (_ BitVec 256))
(declare-fun storage_s ((_ BitVec 256) (_ BitVec 256) (_ BitVec 256) (_ BitVec 256) Int (_ BitVec 256)) (_ BitVec 256))
(declare-fun exc_halt_t (Int) Bool)
(declare-fun exc_halt_s (Int) Bool)
(declare-fun stack_t ((_ BitVec 256) (_ BitVec 256) (_ BitVec 256) (_ BitVec 256) Int (_ BitVec 6)) (_ BitVec 256))
(declare-fun stack_s ((_ BitVec 256) (_ BitVec 256) (_ BitVec 256) (_ BitVec 256) Int (_ BitVec 6)) (_ BitVec 256))
(declare-fun sc_t (Int) (_ BitVec 6))
(declare-fun sc_s (Int) (_ BitVec 6))
(declare-fun used_gas_t ((_ BitVec 256) (_ BitVec 256) (_ BitVec 256) (_ BitVec 256) Int) Int)
(declare-fun used_gas_s ((_ BitVec 256) (_ BitVec 256) (_ BitVec 256) (_ BitVec 256) Int) Int)
(assert
 (exists ((x_0 (_ BitVec 256)) (x_1 (_ BitVec 256)) (x_SLOAD_0 (_ BitVec 256)) )(let (($x1283 (forall ((w (_ BitVec 256)) )(let ((?x5684 (storage_t x_0 x_1 x_SLOAD_0 w_2 5 w)))
 (let ((?x1782 (storage_s x_0 x_1 x_SLOAD_0 w_2 6 w)))
 (= ?x1782 ?x5684))))
 ))
 (let (($x10311 (exc_halt_t 5)))
 (let (($x7121 (exc_halt_s 6)))
 (let (($x9044 (= $x7121 $x10311)))
 (let (($x7902 (forall ((n (_ BitVec 6)) )(let ((?x11646 (stack_t x_0 x_1 x_SLOAD_0 w_2 5 n)))
 (let ((?x3424 (stack_s x_0 x_1 x_SLOAD_0 w_2 6 n)))
 (let (($x9719 (= ?x3424 ?x11646)))
 (or (bvsle (sc_t 5) n) $x9719)))))
 ))
 (let ((?x10036 (sc_t 5)))
 (let ((?x9114 (sc_s 6)))
 (let (($x8483 (= ?x9114 ?x10036)))
 (let ((?x1476 (used_gas_t x_0 x_1 x_SLOAD_0 w_2 0)))
 (let ((?x7704 (used_gas_s x_0 x_1 x_SLOAD_0 w_2 0)))
 (let (($x11051 (= ?x7704 ?x1476)))
 (let (($x5506 (forall ((w (_ BitVec 256)) )(let ((?x9929 (storage_t x_0 x_1 x_SLOAD_0 w_2 0 w)))
 (let ((?x5652 (storage_s x_0 x_1 x_SLOAD_0 w_2 0 w)))
 (= ?x5652 ?x9929))))
 ))
 (let (($x56 (exc_halt_t 0)))
 (let (($x57 (exc_halt_s 0)))
 (let (($x58 (= $x57 $x56)))
 (let (($x6550 (forall ((n (_ BitVec 6)) )(let ((?x63 (sc_t 0)))
 (let (($x7659 (bvsle ?x63 n)))
 (let ((?x1600 (stack_t x_0 x_1 x_SLOAD_0 w_2 0 n)))
 (let ((?x166 (stack_s x_0 x_1 x_SLOAD_0 w_2 0 n)))
 (let (($x817 (= ?x166 ?x1600)))
 (or $x817 $x7659)))))))
 ))
 (let ((?x63 (sc_t 0)))
 (let ((?x72 (sc_s 0)))
 (let (($x73 (= ?x72 ?x63)))
 (let (($x7854 (exc_halt_t 4)))
 (let (($x11135 (or (not (= ((_ extract 6 6) (bvadd (_ bv1 7) (concat (_ bv0 1) (sc_t 4)))) (_ bv0 1))) (not (bvsle (_ bv0 6) (bvadd (_ bv59 6) (sc_t 4)))) $x7854)))
 (let (($x2499 (forall ((w (_ BitVec 256)) )(let ((?x2375 (storage_t x_0 x_1 x_SLOAD_0 w_2 4 w)))
 (let ((?x5684 (storage_t x_0 x_1 x_SLOAD_0 w_2 5 w)))
 (= ?x5684 ?x2375))))
 ))
 (let (($x1418 (forall ((n (_ BitVec 6)) )(let ((?x4563 (stack_t x_0 x_1 x_SLOAD_0 w_2 4 n)))
 (let ((?x11646 (stack_t x_0 x_1 x_SLOAD_0 w_2 5 n)))
 (or (bvsle (bvadd (_ bv59 6) (sc_t 4)) n) (= ?x11646 ?x4563)))))
 ))
 (let (($x6335 (= (used_gas_t x_0 x_1 x_SLOAD_0 w_2 5) (+ 3 (used_gas_t x_0 x_1 x_SLOAD_0 w_2 4)))))
 (let ((?x7495 (sc_t 4)))
 (let ((?x2266 (bvadd (_ bv63 6) ?x7495)))
 (let ((?x5198 (stack_t x_0 x_1 x_SLOAD_0 w_2 4 ?x2266)))
 (let (($x10345 (= (stack_t x_0 x_1 x_SLOAD_0 w_2 5 (bvadd (_ bv62 6) ?x7495)) (stack_t x_0 x_1 x_SLOAD_0 w_2 4 (bvadd (_ bv62 6) ?x7495)))))
 (let (($x8417 (= (stack_t x_0 x_1 x_SLOAD_0 w_2 5 (bvadd (_ bv61 6) ?x7495)) (stack_t x_0 x_1 x_SLOAD_0 w_2 4 (bvadd (_ bv61 6) ?x7495)))))
 (let (($x10416 (= (stack_t x_0 x_1 x_SLOAD_0 w_2 5 (bvadd (_ bv60 6) ?x7495)) (stack_t x_0 x_1 x_SLOAD_0 w_2 4 (bvadd (_ bv60 6) ?x7495)))))
 (let ((?x7840 (bvadd (_ bv59 6) ?x7495)))
 (let ((?x8134 (stack_t x_0 x_1 x_SLOAD_0 w_2 4 ?x7840)))
 (let (($x8702 (= $x7854 (or (exc_halt_t 3) (not (bvsle (_ bv0 6) (bvadd (_ bv63 6) (sc_t 3))))))))
 (let (($x7456 (forall ((w (_ BitVec 256)) )(let ((?x2037 (storage_t x_0 x_1 x_SLOAD_0 w_2 3 w)))
 (let ((?x2375 (storage_t x_0 x_1 x_SLOAD_0 w_2 4 w)))
 (= ?x2375 ?x2037))))
 ))
 (let (($x10185 (forall ((n (_ BitVec 6)) )(let ((?x3402 (stack_t x_0 x_1 x_SLOAD_0 w_2 3 n)))
 (let ((?x4563 (stack_t x_0 x_1 x_SLOAD_0 w_2 4 n)))
 (or (= ?x4563 ?x3402) (bvsle (bvadd (_ bv63 6) (sc_t 3)) n)))))
 ))
 (let ((?x2652 (used_gas_t x_0 x_1 x_SLOAD_0 w_2 4)))
 (let ((?x11682 (storage_t x_0 x_1 x_SLOAD_0 w_2 3 (stack_t x_0 x_1 x_SLOAD_0 w_2 3 (bvadd (_ bv63 6) (sc_t 3))))))
 (let (($x8186 (exc_halt_t 2)))
 (let (($x3731 (or $x8186 (not (= ((_ extract 6 6) (bvadd (_ bv1 7) (concat (_ bv0 1) (sc_t 2)))) (_ bv0 1))))))
 (let (($x9131 (exc_halt_t 3)))
 (let (($x7754 (= $x9131 $x3731)))
 (let (($x6419 (forall ((w (_ BitVec 256)) )(let ((?x7904 (storage_t x_0 x_1 x_SLOAD_0 w_2 2 w)))
 (let ((?x2037 (storage_t x_0 x_1 x_SLOAD_0 w_2 3 w)))
 (= ?x2037 ?x7904))))
 ))
 (let (($x7224 (forall ((n (_ BitVec 6)) )(let ((?x11248 (sc_t 2)))
 (let (($x8371 (bvsle ?x11248 n)))
 (let ((?x1956 (stack_t x_0 x_1 x_SLOAD_0 w_2 2 n)))
 (let ((?x3402 (stack_t x_0 x_1 x_SLOAD_0 w_2 3 n)))
 (or (= ?x3402 ?x1956) $x8371))))))
 ))
 (let ((?x10013 (sc_t 3)))
 (let (($x1863 (= ?x10013 (bvadd (_ bv1 6) (sc_t 2)))))
 (let ((?x10569 (used_gas_t x_0 x_1 x_SLOAD_0 w_2 3)))
 (let (($x5947 (not (= ((_ extract 6 6) (bvadd (_ bv1 7) (concat (_ bv0 1) (sc_t 1)))) (_ bv0 1)))))
 (let (($x4852 (exc_halt_t 1)))
 (let (($x10623 (forall ((w (_ BitVec 256)) )(let ((?x11720 (storage_t x_0 x_1 x_SLOAD_0 w_2 1 w)))
 (let ((?x7904 (storage_t x_0 x_1 x_SLOAD_0 w_2 2 w)))
 (= ?x7904 ?x11720))))
 ))
 (let (($x6554 (forall ((n (_ BitVec 6)) )(let ((?x2821 (stack_t x_0 x_1 x_SLOAD_0 w_2 1 n)))
 (let ((?x1956 (stack_t x_0 x_1 x_SLOAD_0 w_2 2 n)))
 (or (bvsle (bvadd (_ bv61 6) (sc_t 1)) n) (= ?x1956 ?x2821)))))
 ))
 (let ((?x11248 (sc_t 2)))
 (let (($x902 (= ?x11248 (bvadd (_ bv1 6) (sc_t 1)))))
 (let ((?x9473 (used_gas_t x_0 x_1 x_SLOAD_0 w_2 2)))
 (let (($x2473 (= (stack_t x_0 x_1 x_SLOAD_0 w_2 2 (bvadd (_ bv63 6) (sc_t 1))) (stack_t x_0 x_1 x_SLOAD_0 w_2 1 (bvadd (_ bv63 6) (sc_t 1))))))
 (let (($x716 (= (stack_t x_0 x_1 x_SLOAD_0 w_2 2 (bvadd (_ bv62 6) (sc_t 1))) (stack_t x_0 x_1 x_SLOAD_0 w_2 1 (bvadd (_ bv62 6) (sc_t 1))))))
 (let ((?x9666 (sc_t 1)))
 (let ((?x6232 (bvadd (_ bv61 6) ?x9666)))
 (let ((?x4856 (stack_t x_0 x_1 x_SLOAD_0 w_2 1 ?x6232)))
 (let (($x8663 (= $x4852 (or $x56 (not (= ((_ extract 6 6) (bvadd (_ bv1 7) (concat (_ bv0 1) ?x63))) (_ bv0 1)))))))
 (let (($x3286 (forall ((w (_ BitVec 256)) )(let ((?x9929 (storage_t x_0 x_1 x_SLOAD_0 w_2 0 w)))
 (let ((?x11720 (storage_t x_0 x_1 x_SLOAD_0 w_2 1 w)))
 (= ?x11720 ?x9929))))
 ))
 (let (($x10785 (forall ((n (_ BitVec 6)) )(let ((?x1600 (stack_t x_0 x_1 x_SLOAD_0 w_2 0 n)))
 (let ((?x2821 (stack_t x_0 x_1 x_SLOAD_0 w_2 1 n)))
 (let ((?x63 (sc_t 0)))
 (let (($x7659 (bvsle ?x63 n)))
 (or $x7659 (= ?x2821 ?x1600)))))))
 ))
 (let (($x5368 (= ?x9666 (bvadd (_ bv1 6) ?x63))))
 (let (($x9525 (not (bvsle (_ bv0 6) (bvadd (_ bv62 6) (sc_s 5))))))
 (let (($x1862 (exc_halt_s 5)))
 (let (($x6922 (or $x1862 (not (= ((_ extract 6 6) (bvadd (_ bv1 7) (concat (_ bv0 1) (sc_s 5)))) (_ bv0 1))) $x9525)))
 (let (($x4164 (forall ((w (_ BitVec 256)) )(let ((?x5170 (storage_s x_0 x_1 x_SLOAD_0 w_2 5 w)))
 (let ((?x1782 (storage_s x_0 x_1 x_SLOAD_0 w_2 6 w)))
 (= ?x1782 ?x5170))))
 ))
 (let (($x5065 (forall ((n (_ BitVec 6)) )(let ((?x4319 (sc_s 5)))
 (let ((?x11919 (bvadd (_ bv62 6) ?x4319)))
 (let (($x8604 (bvsle ?x11919 n)))
 (let ((?x3876 (stack_s x_0 x_1 x_SLOAD_0 w_2 5 n)))
 (let ((?x3424 (stack_s x_0 x_1 x_SLOAD_0 w_2 6 n)))
 (or (= ?x3424 ?x3876) $x8604)))))))
 ))
 (let (($x428 (= (used_gas_s x_0 x_1 x_SLOAD_0 w_2 6) (+ 3 (used_gas_s x_0 x_1 x_SLOAD_0 w_2 5)))))
 (let ((?x4319 (sc_s 5)))
 (let ((?x2623 (bvadd (_ bv63 6) ?x4319)))
 (let ((?x10159 (stack_s x_0 x_1 x_SLOAD_0 w_2 5 ?x2623)))
 (let ((?x11919 (bvadd (_ bv62 6) ?x4319)))
 (let ((?x4102 (stack_s x_0 x_1 x_SLOAD_0 w_2 5 ?x11919)))
 (let (($x10460 (= $x1862 (or (exc_halt_s 4) (not (bvsle (_ bv0 6) (bvadd (_ bv62 6) (sc_s 4))))))))
 (let (($x8829 (forall ((w (_ BitVec 256)) )(let ((?x8436 (storage_s x_0 x_1 x_SLOAD_0 w_2 4 w)))
 (let ((?x5170 (storage_s x_0 x_1 x_SLOAD_0 w_2 5 w)))
 (= ?x5170 ?x8436))))
 ))
 (let (($x4337 (forall ((n (_ BitVec 6)) )(let ((?x1426 (stack_s x_0 x_1 x_SLOAD_0 w_2 4 n)))
 (let ((?x3876 (stack_s x_0 x_1 x_SLOAD_0 w_2 5 n)))
 (or (= ?x3876 ?x1426) (bvsle (bvadd (_ bv62 6) (sc_s 4)) n)))))
 ))
 (let ((?x9433 (sc_s 4)))
 (let (($x395 (= ?x4319 ?x9433)))
 (let ((?x5833 (used_gas_s x_0 x_1 x_SLOAD_0 w_2 5)))
 (let (($x8103 (exc_halt_s 3)))
 (let (($x4245 (or (not (bvsle (_ bv0 6) (bvadd (_ bv60 6) (sc_s 3)))) (not (= ((_ extract 6 6) (bvadd (_ bv1 7) (concat (_ bv0 1) (sc_s 3)))) (_ bv0 1))) $x8103)))
 (let (($x9175 (exc_halt_s 4)))
 (let (($x4804 (forall ((w (_ BitVec 256)) )(let ((?x10066 (storage_s x_0 x_1 x_SLOAD_0 w_2 3 w)))
 (let ((?x8436 (storage_s x_0 x_1 x_SLOAD_0 w_2 4 w)))
 (= ?x8436 ?x10066))))
 ))
 (let (($x9518 (forall ((n (_ BitVec 6)) )(let ((?x11332 (stack_s x_0 x_1 x_SLOAD_0 w_2 3 n)))
 (let ((?x1426 (stack_s x_0 x_1 x_SLOAD_0 w_2 4 n)))
 (or (bvsle (bvadd (_ bv60 6) (sc_s 3)) n) (= ?x1426 ?x11332)))))
 ))
 (let ((?x7216 (used_gas_s x_0 x_1 x_SLOAD_0 w_2 4)))
 (let ((?x3851 (sc_s 3)))
 (let ((?x1770 (bvadd (_ bv63 6) ?x3851)))
 (let ((?x11188 (stack_s x_0 x_1 x_SLOAD_0 w_2 3 ?x1770)))
 (let (($x6830 (= (stack_s x_0 x_1 x_SLOAD_0 w_2 4 (bvadd (_ bv62 6) ?x3851)) (stack_s x_0 x_1 x_SLOAD_0 w_2 3 (bvadd (_ bv62 6) ?x3851)))))
 (let (($x3972 (= (stack_s x_0 x_1 x_SLOAD_0 w_2 4 (bvadd (_ bv61 6) ?x3851)) (stack_s x_0 x_1 x_SLOAD_0 w_2 3 (bvadd (_ bv61 6) ?x3851)))))
 (let ((?x6430 (bvadd (_ bv60 6) ?x3851)))
 (let ((?x11675 (stack_s x_0 x_1 x_SLOAD_0 w_2 3 ?x6430)))
 (let (($x431 (= $x8103 (or (exc_halt_s 2) (not (bvsle (_ bv0 6) (bvadd (_ bv63 6) (sc_s 2))))))))
 (let (($x9755 (forall ((w (_ BitVec 256)) )(let ((?x4068 (storage_s x_0 x_1 x_SLOAD_0 w_2 2 w)))
 (let ((?x10066 (storage_s x_0 x_1 x_SLOAD_0 w_2 3 w)))
 (= ?x10066 ?x4068))))
 ))
 (let (($x5382 (forall ((n (_ BitVec 6)) )(let ((?x1643 (stack_s x_0 x_1 x_SLOAD_0 w_2 2 n)))
 (let ((?x11332 (stack_s x_0 x_1 x_SLOAD_0 w_2 3 n)))
 (or (bvsle (bvadd (_ bv63 6) (sc_s 2)) n) (= ?x11332 ?x1643)))))
 ))
 (let ((?x2998 (used_gas_s x_0 x_1 x_SLOAD_0 w_2 3)))
 (let ((?x2272 (sc_s 2)))
 (let ((?x8276 (bvadd (_ bv63 6) ?x2272)))
 (let ((?x8261 (stack_s x_0 x_1 x_SLOAD_0 w_2 2 ?x8276)))
 (let (($x8780 (exc_halt_s 1)))
 (let (($x4339 (not (= ((_ extract 6 6) (bvadd (_ bv1 7) (concat (_ bv0 1) (sc_s 1)))) (_ bv0 1)))))
 (let (($x10052 (exc_halt_s 2)))
 (let (($x3408 (forall ((w (_ BitVec 256)) )(let ((?x9159 (storage_s x_0 x_1 x_SLOAD_0 w_2 1 w)))
 (let ((?x4068 (storage_s x_0 x_1 x_SLOAD_0 w_2 2 w)))
 (= ?x4068 ?x9159))))
 ))
 (let (($x8267 (forall ((n (_ BitVec 6)) )(let ((?x4309 (stack_s x_0 x_1 x_SLOAD_0 w_2 1 n)))
 (let ((?x1643 (stack_s x_0 x_1 x_SLOAD_0 w_2 2 n)))
 (or (bvsle (bvadd (_ bv63 6) (sc_s 1)) n) (= ?x1643 ?x4309)))))
 ))
 (let (($x11361 (= ?x2272 (bvadd (_ bv1 6) (sc_s 1)))))
 (let ((?x3993 (used_gas_s x_0 x_1 x_SLOAD_0 w_2 2)))
 (let ((?x154 (sc_s 1)))
 (let ((?x11468 (bvadd (_ bv63 6) ?x154)))
 (let ((?x2795 (stack_s x_0 x_1 x_SLOAD_0 w_2 1 ?x11468)))
 (let (($x8607 (= $x8780 (or $x57 (not (= ((_ extract 6 6) (bvadd (_ bv1 7) (concat (_ bv0 1) ?x72))) (_ bv0 1)))))))
 (let (($x2807 (forall ((w (_ BitVec 256)) )(let ((?x5652 (storage_s x_0 x_1 x_SLOAD_0 w_2 0 w)))
 (let ((?x9159 (storage_s x_0 x_1 x_SLOAD_0 w_2 1 w)))
 (= ?x9159 ?x5652))))
 ))
 (let (($x9948 (forall ((n (_ BitVec 6)) )(let ((?x166 (stack_s x_0 x_1 x_SLOAD_0 w_2 0 n)))
 (let ((?x4309 (stack_s x_0 x_1 x_SLOAD_0 w_2 1 n)))
 (let ((?x72 (sc_s 0)))
 (let (($x949 (bvsle ?x72 n)))
 (or $x949 (= ?x4309 ?x166)))))))
 ))
 (let (($x6719 (= ?x154 (bvadd (_ bv1 6) ?x72))))
 (let (($x3489 (forall ((w (_ BitVec 256)) )(let (($x191 (= w (stack_s x_0 x_1 x_SLOAD_0 w_2 2 (bvadd (_ bv63 6) (sc_s 2))))))
 (let ((?x5652 (storage_s x_0 x_1 x_SLOAD_0 w_2 0 w)))
 (= ?x5652 (ite $x191 x_SLOAD_0 (_ bv0 256))))))
 ))
 (let (($x4968 (= ?x7704 0)))
 (let (($x6704 (not $x57)))
 (let (($x2302 (= (stack_s x_0 x_1 x_SLOAD_0 w_2 0 (_ bv1 6)) x_1)))
 (let (($x5694 (= (stack_s x_0 x_1 x_SLOAD_0 w_2 0 (_ bv0 6)) x_0)))
 (let (($x11128 (= ?x72 (_ bv2 6))))
 (and $x11128 $x5694 $x2302 $x6704 $x4968 $x3489 (= (stack_s x_0 x_1 x_SLOAD_0 w_2 1 ?x72) w_2) (= (used_gas_s x_0 x_1 x_SLOAD_0 w_2 1) (+ 3 ?x7704)) $x6719 $x9948 $x2807 $x8607 (= ?x8261 ?x2795) (= (stack_s x_0 x_1 x_SLOAD_0 w_2 2 ?x11468) ?x2795) (= ?x3993 (+ 3 (used_gas_s x_0 x_1 x_SLOAD_0 w_2 1))) $x11361 $x8267 $x3408 (= $x10052 (or (not (bvsle (_ bv0 6) ?x11468)) $x4339 $x8780)) (= ?x11188 (storage_s x_0 x_1 x_SLOAD_0 w_2 2 ?x8261)) (= ?x2998 (+ 200 ?x3993)) (= ?x3851 ?x2272) $x5382 $x9755 $x431 (= (stack_s x_0 x_1 x_SLOAD_0 w_2 4 (bvadd (_ bv63 6) ?x9433)) ?x11675) (= (stack_s x_0 x_1 x_SLOAD_0 w_2 4 ?x6430) ?x11675) $x3972 $x6830 (= (stack_s x_0 x_1 x_SLOAD_0 w_2 4 ?x1770) ?x11188) (= ?x7216 (+ 3 ?x2998)) (= ?x9433 (bvadd (_ bv1 6) ?x3851)) $x9518 $x4804 (= $x9175 $x4245) (= ?x10159 (stack_s x_0 x_1 x_SLOAD_0 w_2 4 (bvadd (_ bv62 6) ?x9433))) (= ?x4102 (stack_s x_0 x_1 x_SLOAD_0 w_2 4 (bvadd (_ bv63 6) ?x9433))) (= ?x5833 (+ 3 ?x7216)) $x395 $x4337 $x8829 $x10460 (= (stack_s x_0 x_1 x_SLOAD_0 w_2 6 (bvadd (_ bv63 6) ?x9114)) ?x4102) (= (stack_s x_0 x_1 x_SLOAD_0 w_2 6 ?x11919) ?x4102) (= (stack_s x_0 x_1 x_SLOAD_0 w_2 6 ?x2623) ?x10159) $x428 (= ?x9114 (bvadd (_ bv1 6) ?x4319)) $x5065 $x4164 (= $x7121 $x6922) (= (stack_t x_0 x_1 x_SLOAD_0 w_2 1 ?x63) w_2) (= (used_gas_t x_0 x_1 x_SLOAD_0 w_2 1) (+ 3 ?x1476)) $x5368 $x10785 $x3286 $x8663 (= (stack_t x_0 x_1 x_SLOAD_0 w_2 2 (bvadd (_ bv63 6) ?x11248)) ?x4856) (= (stack_t x_0 x_1 x_SLOAD_0 w_2 2 ?x6232) ?x4856) $x716 $x2473 (= ?x9473 (+ 3 (used_gas_t x_0 x_1 x_SLOAD_0 w_2 1))) $x902 $x6554 $x10623 (= $x8186 (or $x4852 $x5947 (not (bvsle (_ bv0 6) ?x6232)))) (= (stack_t x_0 x_1 x_SLOAD_0 w_2 3 ?x11248) w_2) (= ?x10569 (+ 3 ?x9473)) $x1863 $x7224 $x6419 $x7754 (= ?x5198 ?x11682) (= ?x2652 (+ 200 ?x10569)) (= ?x7495 ?x10013) $x10185 $x7456 $x8702 (= (stack_t x_0 x_1 x_SLOAD_0 w_2 5 (bvadd (_ bv63 6) ?x10036)) ?x8134) (= (stack_t x_0 x_1 x_SLOAD_0 w_2 5 ?x7840) ?x8134) $x10416 $x8417 $x10345 (= (stack_t x_0 x_1 x_SLOAD_0 w_2 5 ?x2266) ?x5198) $x6335 (= ?x10036 (bvadd (_ bv1 6) ?x7495)) $x1418 $x2499 (= $x10311 $x11135) $x73 $x6550 $x58 $x5506 $x11051 (not (and $x8483 $x7902 $x9044 $x1283)))))))))))))))))))))))))))))))))))))))))))))))))))))))))))))))))))))))))))))))))))))))))))))))))))))))))))))))))))))))))))
 )
(check-sat)
(get-proof)
